62395
12, 9, 14, 2, 52, 15, 39, 16, 10, 22, 29, 21, 23, 17, 48, 19, 49, 26, 55, 28, 6, 3, 43, 13, 41, 32, 44, 8, 38, 51, 37, 5, 35, 24, 7, 20, 50, 40, 53, 34, 54, 47, 46, 36, 45, 11, 25, 31, 27, 1, 33, 42, 18, 4, 30
